VRP_model/solutions/CRVRP_5-2-7-100_1_8.SOL
# Solution for model CRVRP
# Objective value = 4.5243211430660733e+02
x[0,0] 0
x[0,1] 0
x[0,2] 0
x[0,3] 0
x[0,4] 0
x[0,5] 1
x[0,6] 1
x[0,7] 0
x[0,8] 0
x[0,9] 0
x[0,10] 0
x[0,11] 0
x[0,12] 0
x[0,13] 0
x[0,14] 0
x[0,15] 0
x[1,0] 0
x[1,1] 0
x[1,2] 0
x[1,3] 1
x[1,4] 0
x[1,5] 0
x[1,6] 0
x[1,7] 0
x[1,8] 0
x[1,9] 0
x[1,10] 0
x[1,11] 0
x[1,12] 0
x[1,13] 0
x[1,14] 0
x[1,15] 0
x[2,0] 0
x[2,1] 0
x[2,2] 0
x[2,3] 0
x[2,4] 0
x[2,5] 0
x[2,6] 0
x[2,7] 1
x[2,8] 0
x[2,9] 0
x[2,10] 0
x[2,11] 0
x[2,12] 0
x[2,13] 0
x[2,14] 0
x[2,15] 0
x[3,0] 0
x[3,1] 0
x[3,2] 0
x[3,3] 0
x[3,4] 0
x[3,5] 0
x[3,6] 0
x[3,7] 0
x[3,8] 0
x[3,9] 0
x[3,10] 1
x[3,11] 0
x[3,12] 0
x[3,13] 0
x[3,14] 0
x[3,15] 0
x[4,0] 0
x[4,1] 0
x[4,2] 0
x[4,3] 0
x[4,4] 0
x[4,5] 0
x[4,6] 0
x[4,7] 0
x[4,8] 0
x[4,9] 1
x[4,10] 0
x[4,11] 0
x[4,12] 0
x[4,13] 0
x[4,14] 0
x[4,15] 0
x[5,0] 0
x[5,1] 0
x[5,2] 1
x[5,3] 0
x[5,4] 0
x[5,5] 0
x[5,6] 0
x[5,7] 0
x[5,8] 0
x[5,9] 0
x[5,10] 0
x[5,11] 0
x[5,12] 0
x[5,13] 0
x[5,14] 0
x[5,15] 0
x[6,0] 0
x[6,1] 1
x[6,2] 0
x[6,3] 0
x[6,4] 0
x[6,5] 0
x[6,6] 0
x[6,7] 0
x[6,8] 0
x[6,9] 0
x[6,10] 0
x[6,11] 0
x[6,12] 0
x[6,13] 0
x[6,14] 0
x[6,15] 0
x[7,0] 0
x[7,1] 0
x[7,2] 0
x[7,3] 0
x[7,4] 0
x[7,5] 0
x[7,6] 0
x[7,7] 0
x[7,8] 0
x[7,9] 0
x[7,10] 0
x[7,11] 1
x[7,12] 0
x[7,13] 0
x[7,14] 0
x[7,15] 0
x[8,0] 0
x[8,1] 0
x[8,2] 0
x[8,3] 0
x[8,4] 0
x[8,5] 0
x[8,6] 0
x[8,7] 0
x[8,8] 0
x[8,9] 0
x[8,10] 0
x[8,11] 0
x[8,12] 0
x[8,13] 0
x[8,14] 0
x[8,15] 1
x[9,0] 0
x[9,1] 0
x[9,2] 0
x[9,3] 0
x[9,4] 0
x[9,5] 0
x[9,6] 0
x[9,7] 0
x[9,8] 0
x[9,9] 0
x[9,10] 0
x[9,11] 0
x[9,12] 0
x[9,13] 1
x[9,14] 0
x[9,15] 0
x[10,0] 0
x[10,1] 0
x[10,2] 0
x[10,3] 0
x[10,4] 0
x[10,5] 0
x[10,6] 0
x[10,7] 0
x[10,8] 0
x[10,9] 0
x[10,10] 0
x[10,11] 0
x[10,12] 0
x[10,13] 0
x[10,14] 1
x[10,15] 0
x[11,0] 0
x[11,1] 0
x[11,2] 0
x[11,3] 0
x[11,4] 1
x[11,5] 0
x[11,6] 0
x[11,7] 0
x[11,8] 0
x[11,9] 0
x[11,10] 0
x[11,11] 0
x[11,12] 0
x[11,13] 0
x[11,14] 0
x[11,15] 0
x[12,0] 0
x[12,1] 0
x[12,2] 0
x[12,3] 0
x[12,4] 0
x[12,5] 0
x[12,6] 0
x[12,7] 0
x[12,8] 0
x[12,9] 0
x[12,10] 0
x[12,11] 0
x[12,12] 0
x[12,13] 0
x[12,14] 0
x[12,15] 1
x[13,0] 0
x[13,1] 0
x[13,2] 0
x[13,3] 0
x[13,4] 0
x[13,5] 0
x[13,6] 0
x[13,7] 0
x[13,8] 0
x[13,9] 0
x[13,10] 0
x[13,11] 0
x[13,12] 1
x[13,13] 0
x[13,14] 0
x[13,15] 0
x[14,0] 0
x[14,1] 0
x[14,2] 0
x[14,3] 0
x[14,4] 0
x[14,5] 0
x[14,6] 0
x[14,7] 0
x[14,8] 1
x[14,9] 0
x[14,10] 0
x[14,11] 0
x[14,12] 0
x[14,13] 0
x[14,14] 0
x[14,15] 0
x[15,0] 0
x[15,1] 0
x[15,2] 0
x[15,3] 0
x[15,4] 0
x[15,5] 0
x[15,6] 0
x[15,7] 0
x[15,8] 0
x[15,9] 0
x[15,10] 0
x[15,11] 0
x[15,12] 0
x[15,13] 0
x[15,14] 0
x[15,15] 0
w[0,0] 0
w[0,1] 0
w[0,2] 0
w[0,3] 0
w[0,4] 0
w[0,5] 2
w[0,6] 2
w[0,7] 0
w[0,8] 0
w[0,9] 0
w[0,10] 0
w[0,11] 0
w[0,12] 0
w[0,13] 0
w[0,14] 0
w[0,15] 0
w[1,0] 0
w[1,1] 0
w[1,2] 0
w[1,3] 1
w[1,4] 0
w[1,5] 0
w[1,6] 0
w[1,7] 0
w[1,8] 0
w[1,9] 0
w[1,10] 0
w[1,11] 0
w[1,12] 0
w[1,13] 0
w[1,14] 0
w[1,15] 0
w[2,0] 0
w[2,1] 0
w[2,2] 0
w[2,3] 0
w[2,4] 0
w[2,5] 0
w[2,6] 0
w[2,7] 2
w[2,8] 0
w[2,9] 0
w[2,10] 0
w[2,11] 0
w[2,12] 0
w[2,13] 0
w[2,14] 0
w[2,15] 0
w[3,0] 0
w[3,1] 0
w[3,2] 0
w[3,3] 0
w[3,4] 0
w[3,5] 0
w[3,6] 0
w[3,7] 0
w[3,8] 1
w[3,9] 0
w[3,10] 0
w[3,11] 0
w[3,12] 0
w[3,13] 0
w[3,14] 0
w[3,15] 0
w[4,0] 0
w[4,1] 0
w[4,2] 0
w[4,3] 0
w[4,4] 0
w[4,5] 0
w[4,6] 0
w[4,7] 0
w[4,8] 0
w[4,9] 2
w[4,10] 0
w[4,11] 0
w[4,12] 0
w[4,13] 0
w[4,14] 0
w[4,15] 0
w[5,0] 0
w[5,1] 0
w[5,2] 0
w[5,3] 0
w[5,4] 0
w[5,5] 0
w[5,6] 0
w[5,7] 0
w[5,8] 0
w[5,9] 0
w[5,10] 2
w[5,11] 0
w[5,12] 0
w[5,13] 0
w[5,14] 0
w[5,15] 0
w[6,0] 0
w[6,1] 0
w[6,2] 0
w[6,3] 0
w[6,4] 0
w[6,5] 0
w[6,6] 0
w[6,7] 0
w[6,8] 0
w[6,9] 0
w[6,10] 0
w[6,11] 2
w[6,12] 0
w[6,13] 0
w[6,14] 0
w[6,15] 0
w[7,0] 0
w[7,1] 0
w[7,2] 0
w[7,3] 0
w[7,4] 0
w[7,5] 0
w[7,6] 0
w[7,7] 0
w[7,8] 0
w[7,9] 0
w[7,10] 0
w[7,11] 0
w[7,12] 2
w[7,13] 0
w[7,14] 0
w[7,15] 0
w[8,0] 0
w[8,1] 0
w[8,2] 0
w[8,3] 0
w[8,4] 0
w[8,5] 0
w[8,6] 0
w[8,7] 0
w[8,8] 0
w[8,9] 0
w[8,10] 0
w[8,11] 0
w[8,12] 0
w[8,13] 0
w[8,14] 0
w[8,15] 1
w[9,0] 0
w[9,1] 0
w[9,2] 0
w[9,3] 0
w[9,4] 0
w[9,5] 0
w[9,6] 0
w[9,7] 0
w[9,8] 0
w[9,9] 0
w[9,10] 0
w[9,11] 0
w[9,12] 0
w[9,13] 2
w[9,14] 0
w[9,15] 0
w[10,0] 0
w[10,1] 0
w[10,2] 0
w[10,3] 0
w[10,4] 0
w[10,5] 0
w[10,6] 0
w[10,7] 0
w[10,8] 0
w[10,9] 0
w[10,10] 0
w[10,11] 0
w[10,12] 0
w[10,13] 0
w[10,14] 2
w[10,15] 0
w[11,0] 0
w[11,1] 0
w[11,2] 0
w[11,3] 0
w[11,4] 2
w[11,5] 0
w[11,6] 0
w[11,7] 0
w[11,8] 0
w[11,9] 0
w[11,10] 0
w[11,11] 0
w[11,12] 0
w[11,13] 0
w[11,14] 0
w[11,15] 0
w[12,0] 0
w[12,1] 0
w[12,2] 0
w[12,3] 0
w[12,4] 0
w[12,5] 0
w[12,6] 0
w[12,7] 0
w[12,8] 0
w[12,9] 0
w[12,10] 0
w[12,11] 0
w[12,12] 0
w[12,13] 0
w[12,14] 0
w[12,15] 2
w[13,0] 0
w[13,1] 0
w[13,2] 0
w[13,3] 0
w[13,4] 0
w[13,5] 0
w[13,6] 0
w[13,7] 0
w[13,8] 0
w[13,9] 0
w[13,10] 0
w[13,11] 0
w[13,12] 0
w[13,13] 0
w[13,14] 0
w[13,15] 0
w[14,0] 0
w[14,1] 0
w[14,2] 0
w[14,3] 0
w[14,4] 0
w[14,5] 0
w[14,6] 0
w[14,7] 0
w[14,8] 0
w[14,9] 0
w[14,10] 0
w[14,11] 0
w[14,12] 0
w[14,13] 0
w[14,14] 0
w[14,15] 0
w[15,0] 0
w[15,1] 0
w[15,2] 0
w[15,3] 0
w[15,4] 0
w[15,5] 0
w[15,6] 0
w[15,7] 0
w[15,8] 0
w[15,9] 0
w[15,10] 0
w[15,11] 0
w[15,12] 0
w[15,13] 0
w[15,14] 0
w[15,15] 0
v[0,0] 0
v[0,1] 0
v[0,2] 0
v[0,3] 0
v[0,4] 0
v[0,5] 1
v[0,6] 1
v[0,7] 0
v[0,8] 0
v[0,9] 0
v[0,10] 0
v[0,11] 0
v[0,12] 0
v[0,13] 0
v[0,14] 0
v[0,15] 0
v[1,0] 0
v[1,1] 0
v[1,2] 0
v[1,3] 1
v[1,4] 0
v[1,5] 0
v[1,6] 0
v[1,7] 0
v[1,8] 0
v[1,9] 0
v[1,10] 0
v[1,11] 0
v[1,12] 0
v[1,13] 0
v[1,14] 0
v[1,15] 0
v[2,0] 0
v[2,1] 0
v[2,2] 0
v[2,3] 0
v[2,4] 0
v[2,5] 0
v[2,6] 0
v[2,7] 1
v[2,8] 0
v[2,9] 0
v[2,10] 0
v[2,11] 0
v[2,12] 0
v[2,13] 0
v[2,14] 0
v[2,15] 0
v[3,0] 0
v[3,1] 0
v[3,2] 0
v[3,3] 0
v[3,4] 0
v[3,5] 0
v[3,6] 0
v[3,7] 0
v[3,8] 1
v[3,9] 0
v[3,10] 0
v[3,11] 0
v[3,12] 0
v[3,13] 0
v[3,14] 0
v[3,15] 0
v[4,0] 0
v[4,1] 0
v[4,2] 0
v[4,3] 0
v[4,4] 0
v[4,5] 0
v[4,6] 0
v[4,7] 0
v[4,8] 0
v[4,9] 1
v[4,10] 0
v[4,11] 0
v[4,12] 0
v[4,13] 0
v[4,14] 0
v[4,15] 0
v[5,0] 0
v[5,1] 0
v[5,2] 0
v[5,3] 0
v[5,4] 0
v[5,5] 0
v[5,6] 0
v[5,7] 0
v[5,8] 0
v[5,9] 0
v[5,10] 1
v[5,11] 0
v[5,12] 0
v[5,13] 0
v[5,14] 0
v[5,15] 0
v[6,0] 0
v[6,1] 0
v[6,2] 0
v[6,3] 0
v[6,4] 0
v[6,5] 0
v[6,6] 0
v[6,7] 0
v[6,8] 0
v[6,9] 0
v[6,10] 0
v[6,11] 1
v[6,12] 0
v[6,13] 0
v[6,14] 0
v[6,15] 0
v[7,0] 0
v[7,1] 0
v[7,2] 0
v[7,3] 0
v[7,4] 0
v[7,5] 0
v[7,6] 0
v[7,7] 0
v[7,8] 0
v[7,9] 0
v[7,10] 0
v[7,11] 0
v[7,12] 1
v[7,13] 0
v[7,14] 0
v[7,15] 0
v[8,0] 0
v[8,1] 0
v[8,2] 0
v[8,3] 0
v[8,4] 0
v[8,5] 0
v[8,6] 0
v[8,7] 0
v[8,8] 0
v[8,9] 0
v[8,10] 0
v[8,11] 0
v[8,12] 0
v[8,13] 0
v[8,14] 0
v[8,15] 1
v[9,0] 0
v[9,1] 0
v[9,2] 0
v[9,3] 0
v[9,4] 0
v[9,5] 0
v[9,6] 0
v[9,7] 0
v[9,8] 0
v[9,9] 0
v[9,10] 0
v[9,11] 0
v[9,12] 0
v[9,13] 1
v[9,14] 0
v[9,15] 0
v[10,0] 0
v[10,1] 0
v[10,2] 0
v[10,3] 0
v[10,4] 0
v[10,5] 0
v[10,6] 0
v[10,7] 0
v[10,8] 0
v[10,9] 0
v[10,10] 0
v[10,11] 0
v[10,12] 0
v[10,13] 0
v[10,14] 1
v[10,15] 0
v[11,0] 0
v[11,1] 0
v[11,2] 0
v[11,3] 0
v[11,4] 1
v[11,5] 0
v[11,6] 0
v[11,7] 0
v[11,8] 0
v[11,9] 0
v[11,10] 0
v[11,11] 0
v[11,12] 0
v[11,13] 0
v[11,14] 0
v[11,15] 0
v[12,0] 0
v[12,1] 0
v[12,2] 0
v[12,3] 0
v[12,4] 0
v[12,5] 0
v[12,6] 0
v[12,7] 0
v[12,8] 0
v[12,9] 0
v[12,10] 0
v[12,11] 0
v[12,12] 0
v[12,13] 0
v[12,14] 0
v[12,15] 1
v[13,0] 0
v[13,1] 0
v[13,2] 0
v[13,3] 0
v[13,4] 0
v[13,5] 0
v[13,6] 0
v[13,7] 0
v[13,8] 0
v[13,9] 0
v[13,10] 0
v[13,11] 0
v[13,12] 0
v[13,13] 0
v[13,14] 0
v[13,15] 0
v[14,0] 0
v[14,1] 0
v[14,2] 0
v[14,3] 0
v[14,4] 0
v[14,5] 0
v[14,6] 0
v[14,7] 0
v[14,8] 0
v[14,9] 0
v[14,10] 0
v[14,11] 0
v[14,12] 0
v[14,13] 0
v[14,14] 0
v[14,15] 0
v[15,0] 0
v[15,1] 0
v[15,2] 0
v[15,3] 0
v[15,4] 0
v[15,5] 0
v[15,6] 0
v[15,7] 0
v[15,8] 0
v[15,9] 0
v[15,10] 0
v[15,11] 0
v[15,12] 0
v[15,13] 0
v[15,14] 0
v[15,15] 0
y[3,1] 1
y[3,2] 0
y[4,1] 0
y[4,2] 1
y[5,1] 0
y[5,2] 1
y[6,1] 0
y[6,2] 1
y[7,1] 0
y[7,2] 1
service_time[0] 0
service_time[1] 0
service_time[2] 0
service_time[3] 290
service_time[4] 190
service_time[5] 235
service_time[6] 125
service_time[7] 225
service_time[8] 0
service_time[9] 0
service_time[10] 0
service_time[11] 0
service_time[12] 0
service_time[13] 0
service_time[14] 0
service_time[15] 0
start_service[0] 0
start_service[1] 4.7758244069912784e+01
start_service[2] 8.8193259120542038e+01
start_service[3] 1.0509517918826042e+02
start_service[4] 1.7287680683420513e+02
start_service[5] 3.4131746650458808e+01
start_service[6] 2.3879122034957618e+01
start_service[7] 1.1335250564545409e+02
start_service[8] 3.9509517918826043e+02
start_service[9] 3.6287680683420513e+02
start_service[10] 3.0362649741945080e+02
start_service[11] 1.4887912203495762e+02
start_service[12] 4.2614665214980732e+02
start_service[13] 4.0098740562489428e+02
start_service[14] 3.3775824406957673e+02
start_service[15] 4.5243211430660733e+02
