VRP_model/logs/CRVRP_5-2-7-100_1_8.LOG

Gurobi 9.0.3 (win64) logging started Sat Feb  5 17:52:16 2022

Changed value of parameter LogFile to logs\CRVRP_5-2-7-100_1_8.LOG
   Prev: logs\CRVRP_5-2-7-100_1_7.LOG  Default: 
Changed value of parameter Seed to 271325815
   Prev: 1937956680  Min: 0  Max: 2000000000  Default: 0
Parameter Threads unchanged
   Value: 2  Min: 0  Max: 1024  Default: 0
Parameter TimeLimit unchanged
   Value: 60.0  Min: 0.0  Max: inf  Default: inf
Parameter Symmetry unchanged
   Value: 2  Min: -1  Max: 2  Default: -1
Parameter Cuts unchanged
   Value: 2  Min: -1  Max: 3  Default: -1
Parameter PreDepRow unchanged
   Value: 1  Min: -1  Max: 1  Default: -1
Parameter ScaleFlag unchanged
   Value: 1  Min: -1  Max: 3  Default: -1
Parameter NormAdjust unchanged
   Value: 0  Min: -1  Max: 3  Default: -1
Gurobi Optimizer version 9.0.3 build v9.0.3rc0 (win64)
Optimize a model with 1001 rows, 810 columns and 4006 nonzeros
Model fingerprint: 0x60801deb
Variable types: 32 continuous, 778 integer (522 binary)
Coefficient statistics:
  Matrix range     [1e+00, 1e+06]
  Objective range  [1e+00, 1e+00]
  Bounds range     [1e+00, 1e+04]
  RHS range        [1e+00, 1e+06]
Presolve removed 618 rows and 515 columns
Presolve time: 0.02s
Presolved: 383 rows, 295 columns, 2048 nonzeros
Variable types: 15 continuous, 280 integer (230 binary)

Root relaxation: objective 3.141848e+02, 275 iterations, 0.01 seconds

    Nodes    |    Current Node    |     Objective Bounds      |     Work
 Expl Unexpl |  Obj  Depth IntInf | Incumbent    BestBd   Gap | It/Node Time

     0     0  314.18479    0   35          -  314.18479      -     -    0s
H    0     0                    1197.9012190  314.18479  73.8%     -    0s
     0     0  340.86141    0   50 1197.90122  340.86141  71.5%     -    0s
H    0     0                     922.5827260  340.86141  63.1%     -    0s
H    0     0                     813.5819864  340.86141  58.1%     -    0s
H    0     0                     665.3846935  340.86141  48.8%     -    0s
H    0     0                     662.2117046  340.86141  48.5%     -    0s
     0     0  354.28283    0   55  662.21170  354.28283  46.5%     -    0s
     0     0  354.31236    0   57  662.21170  354.31236  46.5%     -    0s
     0     0  361.70165    0   49  662.21170  361.70165  45.4%     -    0s
H    0     0                     570.5241740  361.70165  36.6%     -    0s
     0     0  361.70165    0   52  570.52417  361.70165  36.6%     -    0s
     0     0  370.68575    0   48  570.52417  370.68575  35.0%     -    0s
     0     0  370.70758    0   56  570.52417  370.70758  35.0%     -    0s
     0     0  375.67087    0   44  570.52417  375.67087  34.2%     -    0s
     0     0  375.68165    0   49  570.52417  375.68165  34.2%     -    0s
     0     0  375.78873    0   62  570.52417  375.78873  34.1%     -    0s
     0     0  375.78873    0   47  570.52417  375.78873  34.1%     -    0s
     0     2  375.79627    0   47  570.52417  375.79627  34.1%     -    0s
*   93    71              15     567.4108183  390.63412  31.2%  22.3    0s
H   94    71                     517.0923252  390.63412  24.5%  22.1    0s
*  151    89              15     505.3108563  399.17644  21.0%  21.7    0s
*  170    94              15     503.9794417  399.17644  20.8%  21.1    0s
*  177    94              12     502.7506074  399.17644  20.6%  20.7    0s
H  187    94                     477.5614280  399.17644  16.4%  20.9    0s
*  201    98              11     452.4321143  400.98741  11.4%  21.2    0s

Cutting planes:
  Gomory: 16
  Implied bound: 13
  Projected implied bound: 1
  MIR: 13
  StrongCG: 2
  Flow cover: 42
  Inf proof: 1
  RLT: 69
  Relax-and-lift: 21

Explored 463 nodes (7481 simplex iterations) in 0.77 seconds
Thread count was 2 (of 8 available processors)

Solution count 10: 452.432 477.561 502.751 ... 665.385

Optimal solution found (tolerance 1.00e-04)
Best objective 4.524321143066e+02, best bound 4.524321143066e+02, gap 0.0000%
Discarded solution information
